benchmark/results/graph__10-1000-0.10-03_15/graph__10-1000-0.10-03_15_QuintonOs_Benders_aux.lp
\ This file has been generated by DOcplex
\ ENCODING=ISO-8859-1
\Problem name: Quinton Bounded Benders_auxiliary_sub

Minimize
 obj: 0.001186888018 pi_nr_a0 + 0.001245330012 pi_nr_a1
      + 0.001804857913 pi_nr_a2 + 0.001453488372 pi_nr_a3
      + 0.001345895020 pi_nr_a4 + 0.001298701299 pi_nr_a5
      + 0.001197604790 pi_nr_a6 + 0.002105263158 pi_nr_a7
      + 0.001405780629 pi_nr_a8 + 0.000951474786 pi_nr_a9 + pi_p_a0_a2
      + pi_p_a6_a1 + pi_p_a6_a7 + pi_p_a6_a8 + pi_p_a2_a5 + pi_p_a4_a5
      + pi_p_a3_a7 + pi_p_a9_a9 + pi_p_a9_a5
      + 1324.091348875399 pi_d_a0_a1_proc_2
      + 2526.911024253774 pi_d_a0_a1_proc_1
      + 1287.997558574956 pi_d_a0_a1_proc_0
      + 1299.091394405980 pi_d_a1_a0_proc_2
      + 2501.911069784355 pi_d_a1_a0_proc_1
      + 1262.997604105537 pi_d_a1_a0_proc_0
      + 1277.945009336372 pi_d_a0_a2_proc_2
      + 1303.348322084859 pi_d_a0_a2_proc_1
      + 2482.768558231796 pi_d_a0_a2_proc_0
      + 1302.903749567688 pi_d_a2_a0_proc_2
      + 1328.307062316174 pi_d_a2_a0_proc_1
      + 2507.727298463111 pi_d_a2_a0_proc_0 + 36.723379276474 pi_d_a0_a3_proc_2
      + 2514.543054654849 pi_d_a0_a3_proc_1
      + 2550.629588976030 pi_d_a0_a3_proc_0 + 36.459364004905 pi_d_a3_a0_proc_2
      + 2514.279039383280 pi_d_a3_a0_proc_1
      + 2550.365573704462 pi_d_a3_a0_proc_0
      + 1324.091348619282 pi_d_a0_a4_proc_2
      + 2526.911023997612 pi_d_a0_a4_proc_1
      + 1287.997558318883 pi_d_a0_a4_proc_0
      + 1299.091394662097 pi_d_a4_a0_proc_2
      + 2501.911070040427 pi_d_a4_a0_proc_1
      + 1262.997604361699 pi_d_a4_a0_proc_0 + 37.558008333204 pi_d_a0_a5_proc_2
      + 2551.464217894621 pi_d_a0_a5_proc_0 + 35.624735086315 pi_d_a5_a0_proc_2
      + 2549.530944647731 pi_d_a5_a0_proc_0
      + 1299.451265526599 pi_d_a0_a6_proc_2
      + 1227.270940983884 pi_d_a0_a6_proc_1
      + 2538.357475154289 pi_d_a0_a6_proc_0
      + 1323.731477750085 pi_d_a6_a0_proc_2
      + 1251.551153207370 pi_d_a6_a0_proc_1
      + 2562.637687377774 pi_d_a6_a0_proc_0
      + 1324.091349515482 pi_d_a0_a7_proc_2
      + 2526.911024893857 pi_d_a0_a7_proc_1
      + 1287.997559215039 pi_d_a0_a7_proc_0
      + 1299.091393765897 pi_d_a7_a0_proc_2
      + 2501.911069144272 pi_d_a7_a0_proc_1
      + 1262.997603465453 pi_d_a7_a0_proc_0 + 101.226272931924 pi_d_a0_a8_proc_2
      + 2454.528757650150 pi_d_a0_a8_proc_1
      + 2545.416863887176 pi_d_a0_a8_proc_0 + 101.445009952424 pi_d_a8_a0_proc_2
      + 2454.747494670650 pi_d_a8_a0_proc_1
      + 2545.635600907676 pi_d_a8_a0_proc_0
      + 1227.279179707170 pi_d_a0_a9_proc_1
      + 1251.542914330959 pi_d_a9_a0_proc_1
      + 2540.919281105801 pi_d_a1_a2_proc_2
      + 1363.502918475913 pi_d_a1_a2_proc_1
      + 1231.836620301668 pi_d_a1_a2_proc_0
      + 2517.746734516880 pi_d_a2_a1_proc_2
      + 1340.330371886991 pi_d_a2_a1_proc_1
      + 1208.664073712747 pi_d_a2_a1_proc_0
      + 1282.435143542069 pi_d_a1_a3_proc_2
      + 2557.435143542069 pi_d_a1_a3_proc_1
      + 1282.435143542069 pi_d_a1_a3_proc_0
      + 1268.564856457931 pi_d_a3_a1_proc_2
      + 2543.564856457931 pi_d_a3_a1_proc_1
      + 1268.564856457931 pi_d_a3_a1_proc_0
      + 2550.000000014902 pi_d_a1_a4_proc_2
      + 2550.000000014857 pi_d_a1_a4_proc_1 + 0.000000014947 pi_d_a1_a4_proc_0
      + 2550.999999985098 pi_d_a4_a1_proc_2
      + 2550.999999985053 pi_d_a4_a1_proc_1 + 0.999999985143 pi_d_a4_a1_proc_0
      + 1287.999976227916 pi_d_a1_a5_proc_2
      + 1287.999976089776 pi_d_a1_a5_proc_0
      + 1263.000023910224 pi_d_a5_a1_proc_2
      + 1263.000023772084 pi_d_a5_a1_proc_0
      + 2537.999999999806 pi_d_a1_a6_proc_2
      + 1263.000000078716 pi_d_a1_a6_proc_1
      + 1262.999999927939 pi_d_a1_a6_proc_0
      + 2562.999999995499 pi_d_a6_a1_proc_2
      + 1288.000000074409 pi_d_a6_a1_proc_1
      + 1287.999999923632 pi_d_a6_a1_proc_0 + 2551 pi_d_a1_a7_proc_2
      + 2551 pi_d_a1_a7_proc_1 + pi_d_a1_a7_proc_0 + 2550 pi_d_a7_a1_proc_2
      + 2550 pi_d_a7_a1_proc_1 + 0.000000000000 pi_d_a7_a1_proc_0
      + 1327.979154391043 pi_d_a1_a8_proc_2
      + 2478.461963730893 pi_d_a1_a8_proc_1
      + 1258.263535646738 pi_d_a1_a8_proc_0
      + 1352.509385211927 pi_d_a8_a1_proc_2
      + 2502.992194551777 pi_d_a8_a1_proc_1
      + 1282.793766467622 pi_d_a8_a1_proc_0
      + 1263.000000002910 pi_d_a1_a9_proc_1
      + 1287.999999997090 pi_d_a9_a1_proc_1
      + 1266.617187498829 pi_d_a2_a3_proc_2
      + 1364.200824868940 pi_d_a2_a3_proc_1
      + 2507.534526694696 pi_d_a2_a3_proc_0
      + 1242.048828123852 pi_d_a3_a2_proc_2
      + 1339.632465493964 pi_d_a3_a2_proc_1
      + 2482.966167319719 pi_d_a3_a2_proc_0
      + 2541.269678016119 pi_d_a2_a4_proc_2
      + 1363.853315386185 pi_d_a2_a4_proc_1
      + 1232.187017212031 pi_d_a2_a4_proc_0
      + 2517.396337606562 pi_d_a4_a2_proc_2
      + 1339.979974976628 pi_d_a4_a2_proc_1
      + 1208.313676802474 pi_d_a4_a2_proc_0
      + 1266.633789130235 pi_d_a2_a5_proc_2
      + 2507.551128187962 pi_d_a2_a5_proc_0
      + 1242.032226630586 pi_d_a5_a2_proc_2
      + 2482.949565688313 pi_d_a5_a2_proc_0
      + 2529.612157917506 pi_d_a2_a6_proc_2 + 77.195795366527 pi_d_a2_a6_proc_1
      + 2495.529497041506 pi_d_a2_a6_proc_0
      + 2529.053857700480 pi_d_a6_a2_proc_2 + 76.637495149501 pi_d_a6_a2_proc_1
      + 2494.971196824480 pi_d_a6_a2_proc_0
      + 2541.313011077290 pi_d_a2_a7_proc_2
      + 1363.896648447402 pi_d_a2_a7_proc_1
      + 1232.230350273158 pi_d_a2_a7_proc_0
      + 2517.353004545390 pi_d_a7_a2_proc_2
      + 1339.936641915502 pi_d_a7_a2_proc_1
      + 1208.270343741257 pi_d_a7_a2_proc_0
      + 1306.733994050658 pi_d_a2_a8_proc_2
      + 1279.800440760620 pi_d_a2_a8_proc_1
      + 2477.935714502221 pi_d_a2_a8_proc_0
      + 1331.420561174992 pi_d_a8_a2_proc_2
      + 1304.487007884954 pi_d_a8_a2_proc_1
      + 2502.622281626554 pi_d_a8_a2_proc_0 + 75.697429697391 pi_d_a2_a9_proc_1
      + 78.135860665513 pi_d_a9_a2_proc_1 + 1288 pi_d_a3_a4_proc_2
      + 2562.999999999955 pi_d_a3_a4_proc_1
      + 1288.000000000045 pi_d_a3_a4_proc_0 + 1263 pi_d_a4_a3_proc_2
      + 2537.999999999955 pi_d_a4_a3_proc_1
      + 1263.000000000045 pi_d_a4_a3_proc_0 + 1.000000069720 pi_d_a3_a5_proc_2
      + 2550.999999931580 pi_d_a3_a5_proc_0 + 0.000000068420 pi_d_a5_a3_proc_2
      + 2549.999999930280 pi_d_a5_a3_proc_0
      + 1287.999999997629 pi_d_a3_a6_proc_2
      + 1288.000000076539 pi_d_a3_a6_proc_1
      + 2562.999999925761 pi_d_a3_a6_proc_0
      + 1262.999999997676 pi_d_a6_a3_proc_2
      + 1263.000000076586 pi_d_a6_a3_proc_1
      + 2537.999999925809 pi_d_a6_a3_proc_0 + 1288 pi_d_a3_a7_proc_2
      + 2563 pi_d_a3_a7_proc_1 + 1288 pi_d_a3_a7_proc_0 + 1263 pi_d_a7_a3_proc_2
      + 2538 pi_d_a7_a3_proc_1 + 1263 pi_d_a7_a3_proc_0
      + 64.884911968088 pi_d_a3_a8_proc_2 + 2490.367721307939 pi_d_a3_a8_proc_1
      + 2545.169293223783 pi_d_a3_a8_proc_0 + 65.603627634881 pi_d_a8_a3_proc_2
      + 2491.086436974732 pi_d_a8_a3_proc_1
      + 2545.888008890577 pi_d_a8_a3_proc_0
      + 1287.999999998522 pi_d_a3_a9_proc_1
      + 1263.000000001478 pi_d_a9_a3_proc_1
      + 1288.000000068420 pi_d_a4_a5_proc_2
      + 1287.999999930325 pi_d_a4_a5_proc_0
      + 1263.000000069720 pi_d_a5_a4_proc_2
      + 1262.999999931625 pi_d_a5_a4_proc_0
      + 2562.999999996895 pi_d_a4_a6_proc_2
      + 1288.000000075760 pi_d_a4_a6_proc_1
      + 1287.999999925073 pi_d_a4_a6_proc_0
      + 2537.999999998410 pi_d_a6_a4_proc_2
      + 1263.000000077275 pi_d_a6_a4_proc_1
      + 1262.999999926587 pi_d_a6_a4_proc_0
      + 2551.000000000000 pi_d_a4_a7_proc_2
      + 2550.999999999955 pi_d_a4_a7_proc_1 + 1.000000000045 pi_d_a4_a7_proc_0
      + 2550.000000000000 pi_d_a7_a4_proc_2
      + 2549.999999999955 pi_d_a7_a4_proc_1 + 0.000000000045 pi_d_a7_a4_proc_0
      + 1343.163056656395 pi_d_a4_a8_proc_2
      + 2493.645865996200 pi_d_a4_a8_proc_1
      + 1273.447437912136 pi_d_a4_a8_proc_0
      + 1337.325482946574 pi_d_a8_a4_proc_2
      + 2487.808292286380 pi_d_a8_a4_proc_1
      + 1267.609864202315 pi_d_a8_a4_proc_0
      + 1287.999999998500 pi_d_a4_a9_proc_1
      + 1263.000000001410 pi_d_a9_a4_proc_1
      + 1288.000000066722 pi_d_a5_a6_proc_2
      + 2562.999999856715 pi_d_a5_a6_proc_0
      + 1263.000000066723 pi_d_a6_a5_proc_2
      + 2537.999999856715 pi_d_a6_a5_proc_0
      + 1263.021362374509 pi_d_a5_a7_proc_2
      + 1263.021362236368 pi_d_a5_a7_proc_0
      + 1287.978637763632 pi_d_a7_a5_proc_2
      + 1287.978637625492 pi_d_a7_a5_proc_0 + 64.134912036693 pi_d_a5_a8_proc_2
      + 2544.419293154247 pi_d_a5_a8_proc_0 + 66.353627704417 pi_d_a8_a5_proc_2
      + 2546.638008821972 pi_d_a8_a5_proc_0
      + 2537.999999999864 pi_d_a6_a7_proc_2
      + 1263.000000078774 pi_d_a6_a7_proc_1
      + 1262.999999927997 pi_d_a6_a7_proc_0
      + 2562.999999995441 pi_d_a7_a6_proc_2
      + 1288.000000074351 pi_d_a7_a6_proc_1
      + 1287.999999923573 pi_d_a7_a6_proc_0
      + 1352.181701132953 pi_d_a6_a8_proc_2
      + 1227.664510551713 pi_d_a6_a8_proc_1
      + 2557.466082316781 pi_d_a6_a8_proc_0
      + 1328.306838465322 pi_d_a8_a6_proc_2
      + 1203.789647884082 pi_d_a8_a6_proc_1
      + 2533.591219649150 pi_d_a8_a6_proc_0 + 1.000000077283 pi_d_a6_a9_proc_1
      + 0.000000075842 pi_d_a9_a6_proc_1 + 1328.084063486962 pi_d_a7_a8_proc_2
      + 2478.566872826813 pi_d_a7_a8_proc_1
      + 1258.368444742658 pi_d_a7_a8_proc_0
      + 1352.404476116007 pi_d_a8_a7_proc_2
      + 2502.887285455858 pi_d_a8_a7_proc_1
      + 1282.688857371703 pi_d_a8_a7_proc_0 + 1288 pi_d_a7_a9_proc_1
      + 1263 pi_d_a9_a7_proc_1 + 1204.180091735856 pi_d_a8_a9_proc_1
      + 1227.274066546815 pi_d_a9_a8_proc_1 + 0.000001896988 pi_y2_a0_proc_0
      + 0.028305061162 pi_y2_a0_proc_1 + 0.971693041850 pi_y2_a0_proc_2
      + pi_y2_a1_proc_0 + 0.000000000000 pi_y2_a1_proc_1
      + 0.000000000000 pi_y2_a1_proc_2 + 0.043333061171 pi_y2_a2_proc_0
      + 0.940065376328 pi_y2_a2_proc_1 + 0.016601562501 pi_y2_a2_proc_2
      + 0.000000000000 pi_y2_a3_proc_0 + 0.000000000000 pi_y2_a3_proc_1
      + pi_y2_a3_proc_2 + 1.000000000000 pi_y2_a4_proc_0
      + 0.000000000000 pi_y2_a4_proc_1 + 0.000000000000 pi_y2_a4_proc_2
      + 0.000000000054 pi_y2_a5_proc_0 + 0.999999999946 pi_y2_a5_proc_2
      + 0.000000000058 pi_y2_a6_proc_0 + 0.999999999940 pi_y2_a6_proc_1
      + 0.000000000002 pi_y2_a6_proc_2 + pi_y2_a7_proc_0
      + 0.000000000000 pi_y2_a7_proc_1 + 0.000000000000 pi_y2_a7_proc_2
      + 0.003899097210 pi_y2_a8_proc_0 + 0.046880722242 pi_y2_a8_proc_1
      + 0.949220180548 pi_y2_a8_proc_2 + pi_y2_a9_proc_1
Subject To
 c1: 0.001173708920 pi_nr_a0 + 0.001245330012 pi_nr_a1 + 0.001848428835 pi_nr_a2
     + 0.001453488372 pi_nr_a3 + 0.001345895020 pi_nr_a4
     + 0.001298701299 pi_nr_a5 + 0.001197604790 pi_nr_a6
     + 0.002105263158 pi_nr_a7 + 0.001418439716 pi_nr_a8
     + 0.000951474786 pi_nr_a9 + pi_p_a0_a2 + pi_p_a6_a1 + pi_p_a6_a7
     + pi_p_a6_a8 + pi_p_a2_a5 + pi_p_a4_a5 + pi_p_a3_a7 + pi_p_a9_a9
     + pi_p_a9_a5 + 1288 pi_d_a0_a1_proc_2 + 2563 pi_d_a0_a1_proc_1
     + 1288 pi_d_a0_a1_proc_0 + 1263 pi_d_a1_a0_proc_2 + 2538 pi_d_a1_a0_proc_1
     + 1263 pi_d_a1_a0_proc_0 + 1263 pi_d_a0_a2_proc_2 + 1263 pi_d_a0_a2_proc_1
     + 2538 pi_d_a0_a2_proc_0 + 1288 pi_d_a2_a0_proc_2 + 1288 pi_d_a2_a0_proc_1
     + 2563 pi_d_a2_a0_proc_0 + pi_d_a0_a3_proc_2 + 2551 pi_d_a0_a3_proc_1
     + 2551 pi_d_a0_a3_proc_0 + 2550 pi_d_a3_a0_proc_1 + 2550 pi_d_a3_a0_proc_0
     + 1288 pi_d_a0_a4_proc_2 + 2563 pi_d_a0_a4_proc_1 + 1288 pi_d_a0_a4_proc_0
     + 1263 pi_d_a4_a0_proc_2 + 2538 pi_d_a4_a0_proc_1 + 1263 pi_d_a4_a0_proc_0
     + pi_d_a0_a5_proc_2 + 2551 pi_d_a0_a5_proc_0 + 2550 pi_d_a5_a0_proc_0
     + 1263 pi_d_a0_a6_proc_2 + 1263 pi_d_a0_a6_proc_1 + 2538 pi_d_a0_a6_proc_0
     + 1288 pi_d_a6_a0_proc_2 + 1288 pi_d_a6_a0_proc_1 + 2563 pi_d_a6_a0_proc_0
     + 1288 pi_d_a0_a7_proc_2 + 2563 pi_d_a0_a7_proc_1 + 1288 pi_d_a0_a7_proc_0
     + 1263 pi_d_a7_a0_proc_2 + 2538 pi_d_a7_a0_proc_1 + 1263 pi_d_a7_a0_proc_0
     + pi_d_a0_a8_proc_2 + 2551 pi_d_a0_a8_proc_1 + 2551 pi_d_a0_a8_proc_0
     + 2550 pi_d_a8_a0_proc_1 + 2550 pi_d_a8_a0_proc_0 + 1263 pi_d_a0_a9_proc_1
     + 1288 pi_d_a9_a0_proc_1 + 2563 pi_d_a1_a2_proc_2 + 1288 pi_d_a1_a2_proc_1
     + 1288 pi_d_a1_a2_proc_0 + 2538 pi_d_a2_a1_proc_2 + 1263 pi_d_a2_a1_proc_1
     + 1263 pi_d_a2_a1_proc_0 + 1288 pi_d_a1_a3_proc_2 + 2563 pi_d_a1_a3_proc_1
     + 1288 pi_d_a1_a3_proc_0 + 1263 pi_d_a3_a1_proc_2 + 2538 pi_d_a3_a1_proc_1
     + 1263 pi_d_a3_a1_proc_0 + 2550 pi_d_a1_a4_proc_2 + 2550 pi_d_a1_a4_proc_1
     + 2551 pi_d_a4_a1_proc_2 + 2551 pi_d_a4_a1_proc_1 + pi_d_a4_a1_proc_0
     + 1288 pi_d_a1_a5_proc_2 + 1288 pi_d_a1_a5_proc_0 + 1263 pi_d_a5_a1_proc_2
     + 1263 pi_d_a5_a1_proc_0 + 2538 pi_d_a1_a6_proc_2 + 1263 pi_d_a1_a6_proc_1
     + 1263 pi_d_a1_a6_proc_0 + 2563 pi_d_a6_a1_proc_2 + 1288 pi_d_a6_a1_proc_1
     + 1288 pi_d_a6_a1_proc_0 + 2551 pi_d_a1_a7_proc_2 + 2551 pi_d_a1_a7_proc_1
     + pi_d_a1_a7_proc_0 + 2550 pi_d_a7_a1_proc_2 + 2550 pi_d_a7_a1_proc_1
     + 1263 pi_d_a1_a8_proc_2 + 2538 pi_d_a1_a8_proc_1 + 1263 pi_d_a1_a8_proc_0
     + 1288 pi_d_a8_a1_proc_2 + 2563 pi_d_a8_a1_proc_1 + 1288 pi_d_a8_a1_proc_0
     + 1263 pi_d_a1_a9_proc_1 + 1288 pi_d_a9_a1_proc_1 + 1288 pi_d_a2_a3_proc_2
     + 1288 pi_d_a2_a3_proc_1 + 2563 pi_d_a2_a3_proc_0 + 1263 pi_d_a3_a2_proc_2
     + 1263 pi_d_a3_a2_proc_1 + 2538 pi_d_a3_a2_proc_0 + 2563 pi_d_a2_a4_proc_2
     + 1288 pi_d_a2_a4_proc_1 + 1288 pi_d_a2_a4_proc_0 + 2538 pi_d_a4_a2_proc_2
     + 1263 pi_d_a4_a2_proc_1 + 1263 pi_d_a4_a2_proc_0 + 1288 pi_d_a2_a5_proc_2
     + 2563 pi_d_a2_a5_proc_0 + 1263 pi_d_a5_a2_proc_2 + 2538 pi_d_a5_a2_proc_0
     + 2550 pi_d_a2_a6_proc_2 + 2550 pi_d_a2_a6_proc_0 + 2551 pi_d_a6_a2_proc_2
     + pi_d_a6_a2_proc_1 + 2551 pi_d_a6_a2_proc_0 + 2563 pi_d_a2_a7_proc_2
     + 1288 pi_d_a2_a7_proc_1 + 1288 pi_d_a2_a7_proc_0 + 2538 pi_d_a7_a2_proc_2
     + 1263 pi_d_a7_a2_proc_1 + 1263 pi_d_a7_a2_proc_0 + 1263 pi_d_a2_a8_proc_2
     + 1263 pi_d_a2_a8_proc_1 + 2538 pi_d_a2_a8_proc_0 + 1288 pi_d_a8_a2_proc_2
     + 1288 pi_d_a8_a2_proc_1 + 2563 pi_d_a8_a2_proc_0 + pi_d_a9_a2_proc_1
     + 1288 pi_d_a3_a4_proc_2 + 2563 pi_d_a3_a4_proc_1 + 1288 pi_d_a3_a4_proc_0
     + 1263 pi_d_a4_a3_proc_2 + 2538 pi_d_a4_a3_proc_1 + 1263 pi_d_a4_a3_proc_0
     + pi_d_a3_a5_proc_2 + 2551 pi_d_a3_a5_proc_0 + 2550 pi_d_a5_a3_proc_0
     + 1288 pi_d_a3_a6_proc_2 + 1288 pi_d_a3_a6_proc_1 + 2563 pi_d_a3_a6_proc_0
     + 1263 pi_d_a6_a3_proc_2 + 1263 pi_d_a6_a3_proc_1 + 2538 pi_d_a6_a3_proc_0
     + 1288 pi_d_a3_a7_proc_2 + 2563 pi_d_a3_a7_proc_1 + 1288 pi_d_a3_a7_proc_0
     + 1263 pi_d_a7_a3_proc_2 + 2538 pi_d_a7_a3_proc_1 + 1263 pi_d_a7_a3_proc_0
     + pi_d_a3_a8_proc_2 + 2551 pi_d_a3_a8_proc_1 + 2551 pi_d_a3_a8_proc_0
     + 2550 pi_d_a8_a3_proc_1 + 2550 pi_d_a8_a3_proc_0 + 1288 pi_d_a3_a9_proc_1
     + 1263 pi_d_a9_a3_proc_1 + 1288 pi_d_a4_a5_proc_2 + 1288 pi_d_a4_a5_proc_0
     + 1263 pi_d_a5_a4_proc_2 + 1263 pi_d_a5_a4_proc_0 + 2563 pi_d_a4_a6_proc_2
     + 1288 pi_d_a4_a6_proc_1 + 1288 pi_d_a4_a6_proc_0 + 2538 pi_d_a6_a4_proc_2
     + 1263 pi_d_a6_a4_proc_1 + 1263 pi_d_a6_a4_proc_0 + 2551 pi_d_a4_a7_proc_2
     + 2551 pi_d_a4_a7_proc_1 + pi_d_a4_a7_proc_0 + 2550 pi_d_a7_a4_proc_2
     + 2550 pi_d_a7_a4_proc_1 + 1276 pi_d_a4_a8_proc_2 + 2551 pi_d_a4_a8_proc_1
     + 1276 pi_d_a4_a8_proc_0 + 1275 pi_d_a8_a4_proc_2 + 2550 pi_d_a8_a4_proc_1
     + 1275 pi_d_a8_a4_proc_0 + 1288 pi_d_a4_a9_proc_1 + 1263 pi_d_a9_a4_proc_1
     + 1288 pi_d_a5_a6_proc_2 + 2563 pi_d_a5_a6_proc_0 + 1263 pi_d_a6_a5_proc_2
     + 2538 pi_d_a6_a5_proc_0 + 1263 pi_d_a5_a7_proc_2 + 1263 pi_d_a5_a7_proc_0
     + 1288 pi_d_a7_a5_proc_2 + 1288 pi_d_a7_a5_proc_0 + 2550 pi_d_a5_a8_proc_0
     + pi_d_a8_a5_proc_2 + 2551 pi_d_a8_a5_proc_0 + 2538 pi_d_a6_a7_proc_2
     + 1263 pi_d_a6_a7_proc_1 + 1263 pi_d_a6_a7_proc_0 + 2563 pi_d_a7_a6_proc_2
     + 1288 pi_d_a7_a6_proc_1 + 1288 pi_d_a7_a6_proc_0 + 1288 pi_d_a6_a8_proc_2
     + 1288 pi_d_a6_a8_proc_1 + 2563 pi_d_a6_a8_proc_0 + 1263 pi_d_a8_a6_proc_2
     + 1263 pi_d_a8_a6_proc_1 + 2538 pi_d_a8_a6_proc_0 + pi_d_a6_a9_proc_1
     + 1263 pi_d_a7_a8_proc_2 + 2538 pi_d_a7_a8_proc_1 + 1263 pi_d_a7_a8_proc_0
     + 1288 pi_d_a8_a7_proc_2 + 2563 pi_d_a8_a7_proc_1 + 1288 pi_d_a8_a7_proc_0
     + 1288 pi_d_a7_a9_proc_1 + 1263 pi_d_a9_a7_proc_1 + 1263 pi_d_a8_a9_proc_1
     + 1288 pi_d_a9_a8_proc_1 + pi_y2_a0_proc_2 + pi_y2_a1_proc_0
     + pi_y2_a2_proc_1 + pi_y2_a3_proc_2 + pi_y2_a4_proc_0 + pi_y2_a5_proc_2
     + pi_y2_a6_proc_1 + pi_y2_a7_proc_0 + pi_y2_a8_proc_2 + pi_y2_a9_proc_1 = 
     0.000304692261
 c2: pi_nr_a0 + pi_nr_a1 + pi_nr_a2 + pi_nr_a3 + pi_nr_a4 + pi_nr_a5 + pi_nr_a6
     + pi_nr_a7 + pi_nr_a8 + pi_nr_a9 - pi_y1_a0 - pi_y1_a1 - pi_y1_a2
     - pi_y1_a3 - pi_y1_a4 - pi_y1_a5 - pi_y1_a6 - pi_y1_a7 - pi_y1_a8
     - pi_y1_a9 >= 1
 c3: - pi_p_a1_a0 + pi_p_a0_a2 + pi_d_a0_a1_proc_2 + pi_d_a0_a1_proc_1
     + pi_d_a0_a1_proc_0 - pi_d_a1_a0_proc_2 - pi_d_a1_a0_proc_1
     - pi_d_a1_a0_proc_0 + pi_d_a0_a2_proc_2 + pi_d_a0_a2_proc_1
     + pi_d_a0_a2_proc_0 - pi_d_a2_a0_proc_2 - pi_d_a2_a0_proc_1
     - pi_d_a2_a0_proc_0 + pi_d_a0_a3_proc_2 + pi_d_a0_a3_proc_1
     + pi_d_a0_a3_proc_0 - pi_d_a3_a0_proc_2 - pi_d_a3_a0_proc_1
     - pi_d_a3_a0_proc_0 + pi_d_a0_a4_proc_2 + pi_d_a0_a4_proc_1
     + pi_d_a0_a4_proc_0 - pi_d_a4_a0_proc_2 - pi_d_a4_a0_proc_1
     - pi_d_a4_a0_proc_0 + pi_d_a0_a5_proc_2 + pi_d_a0_a5_proc_0
     - pi_d_a5_a0_proc_2 - pi_d_a5_a0_proc_0 + pi_d_a0_a6_proc_2
     + pi_d_a0_a6_proc_1 + pi_d_a0_a6_proc_0 - pi_d_a6_a0_proc_2
     - pi_d_a6_a0_proc_1 - pi_d_a6_a0_proc_0 + pi_d_a0_a7_proc_2
     + pi_d_a0_a7_proc_1 + pi_d_a0_a7_proc_0 - pi_d_a7_a0_proc_2
     - pi_d_a7_a0_proc_1 - pi_d_a7_a0_proc_0 + pi_d_a0_a8_proc_2
     + pi_d_a0_a8_proc_1 + pi_d_a0_a8_proc_0 - pi_d_a8_a0_proc_2
     - pi_d_a8_a0_proc_1 - pi_d_a8_a0_proc_0 + pi_d_a0_a9_proc_1
     - pi_d_a9_a0_proc_1 >= 0
 c4: 1275 pi_p_a0_a2 + 1275 pi_d_a0_a1_proc_0 + 1275 pi_d_a0_a2_proc_0
     + 1275 pi_d_a0_a3_proc_0 + 1275 pi_d_a0_a4_proc_0 + 1275 pi_d_a0_a5_proc_0
     + 1275 pi_d_a0_a6_proc_0 + 1275 pi_d_a0_a7_proc_0 + 1275 pi_d_a0_a8_proc_0
     + pi_y1_a0 + pi_y2_a0_proc_0 >= 0
 c5: 610 pi_p_a0_a2 + 610 pi_d_a0_a1_proc_1 + 610 pi_d_a0_a2_proc_1
     + 610 pi_d_a0_a3_proc_1 + 610 pi_d_a0_a4_proc_1 + 610 pi_d_a0_a6_proc_1
     + 610 pi_d_a0_a7_proc_1 + 610 pi_d_a0_a8_proc_1 + 610 pi_d_a0_a9_proc_1
     + pi_y1_a0 + pi_y2_a0_proc_1 >= 0
 c6: 852 pi_p_a0_a2 + 852 pi_d_a0_a1_proc_2 + 852 pi_d_a0_a2_proc_2
     + 852 pi_d_a0_a3_proc_2 + 852 pi_d_a0_a4_proc_2 + 852 pi_d_a0_a5_proc_2
     + 852 pi_d_a0_a6_proc_2 + 852 pi_d_a0_a7_proc_2 + 852 pi_d_a0_a8_proc_2
     + pi_y1_a0 + pi_y2_a0_proc_2 >= 0
 c7: pi_p_a1_a0 - pi_p_a6_a1 + pi_p_a1_a9 - pi_d_a0_a1_proc_2
     - pi_d_a0_a1_proc_1 - pi_d_a0_a1_proc_0 + pi_d_a1_a0_proc_2
     + pi_d_a1_a0_proc_1 + pi_d_a1_a0_proc_0 + pi_d_a1_a2_proc_2
     + pi_d_a1_a2_proc_1 + pi_d_a1_a2_proc_0 - pi_d_a2_a1_proc_2
     - pi_d_a2_a1_proc_1 - pi_d_a2_a1_proc_0 + pi_d_a1_a3_proc_2
     + pi_d_a1_a3_proc_1 + pi_d_a1_a3_proc_0 - pi_d_a3_a1_proc_2
     - pi_d_a3_a1_proc_1 - pi_d_a3_a1_proc_0 + pi_d_a1_a4_proc_2
     + pi_d_a1_a4_proc_1 + pi_d_a1_a4_proc_0 - pi_d_a4_a1_proc_2
     - pi_d_a4_a1_proc_1 - pi_d_a4_a1_proc_0 + pi_d_a1_a5_proc_2
     + pi_d_a1_a5_proc_0 - pi_d_a5_a1_proc_2 - pi_d_a5_a1_proc_0
     + pi_d_a1_a6_proc_2 + pi_d_a1_a6_proc_1 + pi_d_a1_a6_proc_0
     - pi_d_a6_a1_proc_2 - pi_d_a6_a1_proc_1 - pi_d_a6_a1_proc_0
     + pi_d_a1_a7_proc_2 + pi_d_a1_a7_proc_1 + pi_d_a1_a7_proc_0
     - pi_d_a7_a1_proc_2 - pi_d_a7_a1_proc_1 - pi_d_a7_a1_proc_0
     + pi_d_a1_a8_proc_2 + pi_d_a1_a8_proc_1 + pi_d_a1_a8_proc_0
     - pi_d_a8_a1_proc_2 - pi_d_a8_a1_proc_1 - pi_d_a8_a1_proc_0
     + pi_d_a1_a9_proc_1 - pi_d_a9_a1_proc_1 >= 0
 c8: 803 pi_p_a1_a0 + 803 pi_p_a1_a9 + 803 pi_d_a1_a0_proc_0
     + 803 pi_d_a1_a2_proc_0 + 803 pi_d_a1_a3_proc_0 + 803 pi_d_a1_a4_proc_0
     + 803 pi_d_a1_a5_proc_0 + 803 pi_d_a1_a6_proc_0 + 803 pi_d_a1_a7_proc_0
     + 803 pi_d_a1_a8_proc_0 + pi_y1_a1 + pi_y2_a1_proc_0 >= 0
 c9: 1042 pi_p_a1_a0 + 1042 pi_p_a1_a9 + 1042 pi_d_a1_a0_proc_1
     + 1042 pi_d_a1_a2_proc_1 + 1042 pi_d_a1_a3_proc_1 + 1042 pi_d_a1_a4_proc_1
     + 1042 pi_d_a1_a6_proc_1 + 1042 pi_d_a1_a7_proc_1 + 1042 pi_d_a1_a8_proc_1
     + 1042 pi_d_a1_a9_proc_1 + pi_y1_a1 + pi_y2_a1_proc_1 >= 0
 c10: 1225 pi_p_a1_a0 + 1225 pi_p_a1_a9 + 1225 pi_d_a1_a0_proc_2
      + 1225 pi_d_a1_a2_proc_2 + 1225 pi_d_a1_a3_proc_2 + 1225 pi_d_a1_a4_proc_2
      + 1225 pi_d_a1_a5_proc_2 + 1225 pi_d_a1_a6_proc_2 + 1225 pi_d_a1_a7_proc_2
      + 1225 pi_d_a1_a8_proc_2 + pi_y1_a1 + pi_y2_a1_proc_2 >= 0
 c11: - pi_p_a0_a2 + pi_p_a2_a3 - pi_p_a5_a2 + pi_p_a2_a5 - pi_p_a7_a2
      - pi_d_a0_a2_proc_2 - pi_d_a0_a2_proc_1 - pi_d_a0_a2_proc_0
      + pi_d_a2_a0_proc_2 + pi_d_a2_a0_proc_1 + pi_d_a2_a0_proc_0
      - pi_d_a1_a2_proc_2 - pi_d_a1_a2_proc_1 - pi_d_a1_a2_proc_0
      + pi_d_a2_a1_proc_2 + pi_d_a2_a1_proc_1 + pi_d_a2_a1_proc_0
      + pi_d_a2_a3_proc_2 + pi_d_a2_a3_proc_1 + pi_d_a2_a3_proc_0
      - pi_d_a3_a2_proc_2 - pi_d_a3_a2_proc_1 - pi_d_a3_a2_proc_0
      + pi_d_a2_a4_proc_2 + pi_d_a2_a4_proc_1 + pi_d_a2_a4_proc_0
      - pi_d_a4_a2_proc_2 - pi_d_a4_a2_proc_1 - pi_d_a4_a2_proc_0
      + pi_d_a2_a5_proc_2 + pi_d_a2_a5_proc_0 - pi_d_a5_a2_proc_2
      - pi_d_a5_a2_proc_0 + pi_d_a2_a6_proc_2 + pi_d_a2_a6_proc_1
      + pi_d_a2_a6_proc_0 - pi_d_a6_a2_proc_2 - pi_d_a6_a2_proc_1
      - pi_d_a6_a2_proc_0 + pi_d_a2_a7_proc_2 + pi_d_a2_a7_proc_1
      + pi_d_a2_a7_proc_0 - pi_d_a7_a2_proc_2 - pi_d_a7_a2_proc_1
      - pi_d_a7_a2_proc_0 + pi_d_a2_a8_proc_2 + pi_d_a2_a8_proc_1
      + pi_d_a2_a8_proc_0 - pi_d_a8_a2_proc_2 - pi_d_a8_a2_proc_1
      - pi_d_a8_a2_proc_0 + pi_d_a2_a9_proc_1 - pi_d_a9_a2_proc_1 >= 0
 c12: 844 pi_p_a2_a3 + 844 pi_p_a2_a5 + 844 pi_d_a2_a0_proc_0
      + 844 pi_d_a2_a1_proc_0 + 844 pi_d_a2_a3_proc_0 + 844 pi_d_a2_a4_proc_0
      + 844 pi_d_a2_a5_proc_0 + 844 pi_d_a2_a6_proc_0 + 844 pi_d_a2_a7_proc_0
      + 844 pi_d_a2_a8_proc_0 + pi_y1_a2 + pi_y2_a2_proc_0 >= 0
 c13: 541 pi_p_a2_a3 + 541 pi_p_a2_a5 + 541 pi_d_a2_a0_proc_1
      + 541 pi_d_a2_a1_proc_1 + 541 pi_d_a2_a3_proc_1 + 541 pi_d_a2_a4_proc_1
      + 541 pi_d_a2_a6_proc_1 + 541 pi_d_a2_a7_proc_1 + 541 pi_d_a2_a8_proc_1
      + 541 pi_d_a2_a9_proc_1 + pi_y1_a2 + pi_y2_a2_proc_1 >= 0
 c14: 1046 pi_p_a2_a3 + 1046 pi_p_a2_a5 + 1046 pi_d_a2_a0_proc_2
      + 1046 pi_d_a2_a1_proc_2 + 1046 pi_d_a2_a3_proc_2 + 1046 pi_d_a2_a4_proc_2
      + 1046 pi_d_a2_a5_proc_2 + 1046 pi_d_a2_a6_proc_2 + 1046 pi_d_a2_a7_proc_2
      + 1046 pi_d_a2_a8_proc_2 + pi_y1_a2 + pi_y2_a2_proc_2 >= 0
 c15: - pi_p_a2_a3 + pi_p_a3_a4 + pi_p_a3_a7 - pi_d_a0_a3_proc_2
      - pi_d_a0_a3_proc_1 - pi_d_a0_a3_proc_0 + pi_d_a3_a0_proc_2
      + pi_d_a3_a0_proc_1 + pi_d_a3_a0_proc_0 - pi_d_a1_a3_proc_2
      - pi_d_a1_a3_proc_1 - pi_d_a1_a3_proc_0 + pi_d_a3_a1_proc_2
      + pi_d_a3_a1_proc_1 + pi_d_a3_a1_proc_0 - pi_d_a2_a3_proc_2
      - pi_d_a2_a3_proc_1 - pi_d_a2_a3_proc_0 + pi_d_a3_a2_proc_2
      + pi_d_a3_a2_proc_1 + pi_d_a3_a2_proc_0 + pi_d_a3_a4_proc_2
      + pi_d_a3_a4_proc_1 + pi_d_a3_a4_proc_0 - pi_d_a4_a3_proc_2
      - pi_d_a4_a3_proc_1 - pi_d_a4_a3_proc_0 + pi_d_a3_a5_proc_2
      + pi_d_a3_a5_proc_0 - pi_d_a5_a3_proc_2 - pi_d_a5_a3_proc_0
      + pi_d_a3_a6_proc_2 + pi_d_a3_a6_proc_1 + pi_d_a3_a6_proc_0
      - pi_d_a6_a3_proc_2 - pi_d_a6_a3_proc_1 - pi_d_a6_a3_proc_0
      + pi_d_a3_a7_proc_2 + pi_d_a3_a7_proc_1 + pi_d_a3_a7_proc_0
      - pi_d_a7_a3_proc_2 - pi_d_a7_a3_proc_1 - pi_d_a7_a3_proc_0
      + pi_d_a3_a8_proc_2 + pi_d_a3_a8_proc_1 + pi_d_a3_a8_proc_0
      - pi_d_a8_a3_proc_2 - pi_d_a8_a3_proc_1 - pi_d_a8_a3_proc_0
      + pi_d_a3_a9_proc_1 - pi_d_a9_a3_proc_1 >= 0
 c16: 1123 pi_p_a3_a4 + 1123 pi_p_a3_a7 + 1123 pi_d_a3_a0_proc_0
      + 1123 pi_d_a3_a1_proc_0 + 1123 pi_d_a3_a2_proc_0 + 1123 pi_d_a3_a4_proc_0
      + 1123 pi_d_a3_a5_proc_0 + 1123 pi_d_a3_a6_proc_0 + 1123 pi_d_a3_a7_proc_0
      + 1123 pi_d_a3_a8_proc_0 + pi_y1_a3 + pi_y2_a3_proc_0 >= 0
 c17: 915 pi_p_a3_a4 + 915 pi_p_a3_a7 + 915 pi_d_a3_a0_proc_1
      + 915 pi_d_a3_a1_proc_1 + 915 pi_d_a3_a2_proc_1 + 915 pi_d_a3_a4_proc_1
      + 915 pi_d_a3_a6_proc_1 + 915 pi_d_a3_a7_proc_1 + 915 pi_d_a3_a8_proc_1
      + 915 pi_d_a3_a9_proc_1 + pi_y1_a3 + pi_y2_a3_proc_1 >= 0
 c18: 688 pi_p_a3_a4 + 688 pi_p_a3_a7 + 688 pi_d_a3_a0_proc_2
      + 688 pi_d_a3_a1_proc_2 + 688 pi_d_a3_a2_proc_2 + 688 pi_d_a3_a4_proc_2
      + 688 pi_d_a3_a5_proc_2 + 688 pi_d_a3_a6_proc_2 + 688 pi_d_a3_a7_proc_2
      + 688 pi_d_a3_a8_proc_2 + pi_y1_a3 + pi_y2_a3_proc_2 >= 0
 c19: - pi_p_a3_a4 + pi_p_a4_a6 + pi_p_a4_a5 - pi_d_a0_a4_proc_2
      - pi_d_a0_a4_proc_1 - pi_d_a0_a4_proc_0 + pi_d_a4_a0_proc_2
      + pi_d_a4_a0_proc_1 + pi_d_a4_a0_proc_0 - pi_d_a1_a4_proc_2
      - pi_d_a1_a4_proc_1 - pi_d_a1_a4_proc_0 + pi_d_a4_a1_proc_2
      + pi_d_a4_a1_proc_1 + pi_d_a4_a1_proc_0 - pi_d_a2_a4_proc_2
      - pi_d_a2_a4_proc_1 - pi_d_a2_a4_proc_0 + pi_d_a4_a2_proc_2
      + pi_d_a4_a2_proc_1 + pi_d_a4_a2_proc_0 - pi_d_a3_a4_proc_2
      - pi_d_a3_a4_proc_1 - pi_d_a3_a4_proc_0 + pi_d_a4_a3_proc_2
      + pi_d_a4_a3_proc_1 + pi_d_a4_a3_proc_0 + pi_d_a4_a5_proc_2
      + pi_d_a4_a5_proc_0 - pi_d_a5_a4_proc_2 - pi_d_a5_a4_proc_0
      + pi_d_a4_a6_proc_2 + pi_d_a4_a6_proc_1 + pi_d_a4_a6_proc_0
      - pi_d_a6_a4_proc_2 - pi_d_a6_a4_proc_1 - pi_d_a6_a4_proc_0
      + pi_d_a4_a7_proc_2 + pi_d_a4_a7_proc_1 + pi_d_a4_a7_proc_0
      - pi_d_a7_a4_proc_2 - pi_d_a7_a4_proc_1 - pi_d_a7_a4_proc_0
      + pi_d_a4_a8_proc_2 + pi_d_a4_a8_proc_1 + pi_d_a4_a8_proc_0
      - pi_d_a8_a4_proc_2 - pi_d_a8_a4_proc_1 - pi_d_a8_a4_proc_0
      + pi_d_a4_a9_proc_1 - pi_d_a9_a4_proc_1 >= 0
 c20: 743 pi_p_a4_a6 + 743 pi_p_a4_a5 + 743 pi_d_a4_a0_proc_0
      + 743 pi_d_a4_a1_proc_0 + 743 pi_d_a4_a2_proc_0 + 743 pi_d_a4_a3_proc_0
      + 743 pi_d_a4_a5_proc_0 + 743 pi_d_a4_a6_proc_0 + 743 pi_d_a4_a7_proc_0
      + 743 pi_d_a4_a8_proc_0 + pi_y1_a4 + pi_y2_a4_proc_0 >= 0
 c21: 1022 pi_p_a4_a6 + 1022 pi_p_a4_a5 + 1022 pi_d_a4_a0_proc_1
      + 1022 pi_d_a4_a1_proc_1 + 1022 pi_d_a4_a2_proc_1 + 1022 pi_d_a4_a3_proc_1
      + 1022 pi_d_a4_a6_proc_1 + 1022 pi_d_a4_a7_proc_1 + 1022 pi_d_a4_a8_proc_1
      + 1022 pi_d_a4_a9_proc_1 + pi_y1_a4 + pi_y2_a4_proc_1 >= 0
 c22: 1254 pi_p_a4_a6 + 1254 pi_p_a4_a5 + 1254 pi_d_a4_a0_proc_2
      + 1254 pi_d_a4_a1_proc_2 + 1254 pi_d_a4_a2_proc_2 + 1254 pi_d_a4_a3_proc_2
      + 1254 pi_d_a4_a5_proc_2 + 1254 pi_d_a4_a6_proc_2 + 1254 pi_d_a4_a7_proc_2
      + 1254 pi_d_a4_a8_proc_2 + pi_y1_a4 + pi_y2_a4_proc_2 >= 0
 c23: pi_p_a5_a2 - pi_p_a2_a5 - pi_p_a4_a5 - pi_p_a9_a5 - pi_d_a0_a5_proc_2
      - pi_d_a0_a5_proc_0 + pi_d_a5_a0_proc_2 + pi_d_a5_a0_proc_0
      - pi_d_a1_a5_proc_2 - pi_d_a1_a5_proc_0 + pi_d_a5_a1_proc_2
      + pi_d_a5_a1_proc_0 - pi_d_a2_a5_proc_2 - pi_d_a2_a5_proc_0
      + pi_d_a5_a2_proc_2 + pi_d_a5_a2_proc_0 - pi_d_a3_a5_proc_2
      - pi_d_a3_a5_proc_0 + pi_d_a5_a3_proc_2 + pi_d_a5_a3_proc_0
      - pi_d_a4_a5_proc_2 - pi_d_a4_a5_proc_0 + pi_d_a5_a4_proc_2
      + pi_d_a5_a4_proc_0 + pi_d_a5_a6_proc_2 + pi_d_a5_a6_proc_0
      - pi_d_a6_a5_proc_2 - pi_d_a6_a5_proc_0 + pi_d_a5_a7_proc_2
      + pi_d_a5_a7_proc_0 - pi_d_a7_a5_proc_2 - pi_d_a7_a5_proc_0
      + pi_d_a5_a8_proc_2 + pi_d_a5_a8_proc_0 - pi_d_a8_a5_proc_2
      - pi_d_a8_a5_proc_0 >= 0
 c24: 956 pi_p_a5_a2 + 956 pi_d_a5_a0_proc_0 + 956 pi_d_a5_a1_proc_0
      + 956 pi_d_a5_a2_proc_0 + 956 pi_d_a5_a3_proc_0 + 956 pi_d_a5_a4_proc_0
      + 956 pi_d_a5_a6_proc_0 + 956 pi_d_a5_a7_proc_0 + 956 pi_d_a5_a8_proc_0
      + pi_y1_a5 + pi_y2_a5_proc_0 >= 0
 c25: 770 pi_p_a5_a2 + 770 pi_d_a5_a0_proc_2 + 770 pi_d_a5_a1_proc_2
      + 770 pi_d_a5_a2_proc_2 + 770 pi_d_a5_a3_proc_2 + 770 pi_d_a5_a4_proc_2
      + 770 pi_d_a5_a6_proc_2 + 770 pi_d_a5_a7_proc_2 + 770 pi_d_a5_a8_proc_2
      + pi_y1_a5 + pi_y2_a5_proc_2 >= 0
 c26: pi_p_a6_a1 + pi_p_a6_a7 + pi_p_a6_a8 - pi_p_a4_a6 - pi_p_a8_a6
      - pi_d_a0_a6_proc_2 - pi_d_a0_a6_proc_1 - pi_d_a0_a6_proc_0
      + pi_d_a6_a0_proc_2 + pi_d_a6_a0_proc_1 + pi_d_a6_a0_proc_0
      - pi_d_a1_a6_proc_2 - pi_d_a1_a6_proc_1 - pi_d_a1_a6_proc_0
      + pi_d_a6_a1_proc_2 + pi_d_a6_a1_proc_1 + pi_d_a6_a1_proc_0
      - pi_d_a2_a6_proc_2 - pi_d_a2_a6_proc_1 - pi_d_a2_a6_proc_0
      + pi_d_a6_a2_proc_2 + pi_d_a6_a2_proc_1 + pi_d_a6_a2_proc_0
      - pi_d_a3_a6_proc_2 - pi_d_a3_a6_proc_1 - pi_d_a3_a6_proc_0
      + pi_d_a6_a3_proc_2 + pi_d_a6_a3_proc_1 + pi_d_a6_a3_proc_0
      - pi_d_a4_a6_proc_2 - pi_d_a4_a6_proc_1 - pi_d_a4_a6_proc_0
      + pi_d_a6_a4_proc_2 + pi_d_a6_a4_proc_1 + pi_d_a6_a4_proc_0
      - pi_d_a5_a6_proc_2 - pi_d_a5_a6_proc_0 + pi_d_a6_a5_proc_2
      + pi_d_a6_a5_proc_0 + pi_d_a6_a7_proc_2 + pi_d_a6_a7_proc_1
      + pi_d_a6_a7_proc_0 - pi_d_a7_a6_proc_2 - pi_d_a7_a6_proc_1
      - pi_d_a7_a6_proc_0 + pi_d_a6_a8_proc_2 + pi_d_a6_a8_proc_1
      + pi_d_a6_a8_proc_0 - pi_d_a8_a6_proc_2 - pi_d_a8_a6_proc_1
      - pi_d_a8_a6_proc_0 + pi_d_a6_a9_proc_1 - pi_d_a9_a6_proc_1 >= 0
 c27: 1149 pi_p_a6_a1 + 1149 pi_p_a6_a7 + 1149 pi_p_a6_a8
      + 1149 pi_d_a6_a0_proc_0 + 1149 pi_d_a6_a1_proc_0 + 1149 pi_d_a6_a2_proc_0
      + 1149 pi_d_a6_a3_proc_0 + 1149 pi_d_a6_a4_proc_0 + 1149 pi_d_a6_a5_proc_0
      + 1149 pi_d_a6_a7_proc_0 + 1149 pi_d_a6_a8_proc_0 + pi_y1_a6
      + pi_y2_a6_proc_0 >= 0
 c28: 835 pi_p_a6_a1 + 835 pi_p_a6_a7 + 835 pi_p_a6_a8 + 835 pi_d_a6_a0_proc_1
      + 835 pi_d_a6_a1_proc_1 + 835 pi_d_a6_a2_proc_1 + 835 pi_d_a6_a3_proc_1
      + 835 pi_d_a6_a4_proc_1 + 835 pi_d_a6_a7_proc_1 + 835 pi_d_a6_a8_proc_1
      + 835 pi_d_a6_a9_proc_1 + pi_y1_a6 + pi_y2_a6_proc_1 >= 0
 c29: 1197 pi_p_a6_a1 + 1197 pi_p_a6_a7 + 1197 pi_p_a6_a8
      + 1197 pi_d_a6_a0_proc_2 + 1197 pi_d_a6_a1_proc_2 + 1197 pi_d_a6_a2_proc_2
      + 1197 pi_d_a6_a3_proc_2 + 1197 pi_d_a6_a4_proc_2 + 1197 pi_d_a6_a5_proc_2
      + 1197 pi_d_a6_a7_proc_2 + 1197 pi_d_a6_a8_proc_2 + pi_y1_a6
      + pi_y2_a6_proc_2 >= 0
 c30: - pi_p_a6_a7 + pi_p_a7_a2 - pi_p_a3_a7 - pi_d_a0_a7_proc_2
      - pi_d_a0_a7_proc_1 - pi_d_a0_a7_proc_0 + pi_d_a7_a0_proc_2
      + pi_d_a7_a0_proc_1 + pi_d_a7_a0_proc_0 - pi_d_a1_a7_proc_2
      - pi_d_a1_a7_proc_1 - pi_d_a1_a7_proc_0 + pi_d_a7_a1_proc_2
      + pi_d_a7_a1_proc_1 + pi_d_a7_a1_proc_0 - pi_d_a2_a7_proc_2
      - pi_d_a2_a7_proc_1 - pi_d_a2_a7_proc_0 + pi_d_a7_a2_proc_2
      + pi_d_a7_a2_proc_1 + pi_d_a7_a2_proc_0 - pi_d_a3_a7_proc_2
      - pi_d_a3_a7_proc_1 - pi_d_a3_a7_proc_0 + pi_d_a7_a3_proc_2
      + pi_d_a7_a3_proc_1 + pi_d_a7_a3_proc_0 - pi_d_a4_a7_proc_2
      - pi_d_a4_a7_proc_1 - pi_d_a4_a7_proc_0 + pi_d_a7_a4_proc_2
      + pi_d_a7_a4_proc_1 + pi_d_a7_a4_proc_0 - pi_d_a5_a7_proc_2
      - pi_d_a5_a7_proc_0 + pi_d_a7_a5_proc_2 + pi_d_a7_a5_proc_0
      - pi_d_a6_a7_proc_2 - pi_d_a6_a7_proc_1 - pi_d_a6_a7_proc_0
      + pi_d_a7_a6_proc_2 + pi_d_a7_a6_proc_1 + pi_d_a7_a6_proc_0
      + pi_d_a7_a8_proc_2 + pi_d_a7_a8_proc_1 + pi_d_a7_a8_proc_0
      - pi_d_a8_a7_proc_2 - pi_d_a8_a7_proc_1 - pi_d_a8_a7_proc_0
      + pi_d_a7_a9_proc_1 - pi_d_a9_a7_proc_1 >= 0
 c31: 475 pi_p_a7_a2 + 475 pi_d_a7_a0_proc_0 + 475 pi_d_a7_a1_proc_0
      + 475 pi_d_a7_a2_proc_0 + 475 pi_d_a7_a3_proc_0 + 475 pi_d_a7_a4_proc_0
      + 475 pi_d_a7_a5_proc_0 + 475 pi_d_a7_a6_proc_0 + 475 pi_d_a7_a8_proc_0
      + pi_y1_a7 + pi_y2_a7_proc_0 >= 0
 c32: 1052 pi_p_a7_a2 + 1052 pi_d_a7_a0_proc_1 + 1052 pi_d_a7_a1_proc_1
      + 1052 pi_d_a7_a2_proc_1 + 1052 pi_d_a7_a3_proc_1 + 1052 pi_d_a7_a4_proc_1
      + 1052 pi_d_a7_a6_proc_1 + 1052 pi_d_a7_a8_proc_1 + 1052 pi_d_a7_a9_proc_1
      + pi_y1_a7 + pi_y2_a7_proc_1 >= 0
 c33: 822 pi_p_a7_a2 + 822 pi_d_a7_a0_proc_2 + 822 pi_d_a7_a1_proc_2
      + 822 pi_d_a7_a2_proc_2 + 822 pi_d_a7_a3_proc_2 + 822 pi_d_a7_a4_proc_2
      + 822 pi_d_a7_a5_proc_2 + 822 pi_d_a7_a6_proc_2 + 822 pi_d_a7_a8_proc_2
      + pi_y1_a7 + pi_y2_a7_proc_2 >= 0
 c34: - pi_p_a6_a8 + pi_p_a8_a6 - pi_d_a0_a8_proc_2 - pi_d_a0_a8_proc_1
      - pi_d_a0_a8_proc_0 + pi_d_a8_a0_proc_2 + pi_d_a8_a0_proc_1
      + pi_d_a8_a0_proc_0 - pi_d_a1_a8_proc_2 - pi_d_a1_a8_proc_1
      - pi_d_a1_a8_proc_0 + pi_d_a8_a1_proc_2 + pi_d_a8_a1_proc_1
      + pi_d_a8_a1_proc_0 - pi_d_a2_a8_proc_2 - pi_d_a2_a8_proc_1
      - pi_d_a2_a8_proc_0 + pi_d_a8_a2_proc_2 + pi_d_a8_a2_proc_1
      + pi_d_a8_a2_proc_0 - pi_d_a3_a8_proc_2 - pi_d_a3_a8_proc_1
      - pi_d_a3_a8_proc_0 + pi_d_a8_a3_proc_2 + pi_d_a8_a3_proc_1
      + pi_d_a8_a3_proc_0 - pi_d_a4_a8_proc_2 - pi_d_a4_a8_proc_1
      - pi_d_a4_a8_proc_0 + pi_d_a8_a4_proc_2 + pi_d_a8_a4_proc_1
      + pi_d_a8_a4_proc_0 - pi_d_a5_a8_proc_2 - pi_d_a5_a8_proc_0
      + pi_d_a8_a5_proc_2 + pi_d_a8_a5_proc_0 - pi_d_a6_a8_proc_2
      - pi_d_a6_a8_proc_1 - pi_d_a6_a8_proc_0 + pi_d_a8_a6_proc_2
      + pi_d_a8_a6_proc_1 + pi_d_a8_a6_proc_0 - pi_d_a7_a8_proc_2
      - pi_d_a7_a8_proc_1 - pi_d_a7_a8_proc_0 + pi_d_a8_a7_proc_2
      + pi_d_a8_a7_proc_1 + pi_d_a8_a7_proc_0 + pi_d_a8_a9_proc_1
      - pi_d_a9_a8_proc_1 >= 0
 c35: 986 pi_p_a8_a6 + 986 pi_d_a8_a0_proc_0 + 986 pi_d_a8_a1_proc_0
      + 986 pi_d_a8_a2_proc_0 + 986 pi_d_a8_a3_proc_0 + 986 pi_d_a8_a4_proc_0
      + 986 pi_d_a8_a5_proc_0 + 986 pi_d_a8_a6_proc_0 + 986 pi_d_a8_a7_proc_0
      + pi_y1_a8 + pi_y2_a8_proc_0 >= 0
 c36: 846 pi_p_a8_a6 + 846 pi_d_a8_a0_proc_1 + 846 pi_d_a8_a1_proc_1
      + 846 pi_d_a8_a2_proc_1 + 846 pi_d_a8_a3_proc_1 + 846 pi_d_a8_a4_proc_1
      + 846 pi_d_a8_a6_proc_1 + 846 pi_d_a8_a7_proc_1 + 846 pi_d_a8_a9_proc_1
      + pi_y1_a8 + pi_y2_a8_proc_1 >= 0
 c37: 705 pi_p_a8_a6 + 705 pi_d_a8_a0_proc_2 + 705 pi_d_a8_a1_proc_2
      + 705 pi_d_a8_a2_proc_2 + 705 pi_d_a8_a3_proc_2 + 705 pi_d_a8_a4_proc_2
      + 705 pi_d_a8_a5_proc_2 + 705 pi_d_a8_a6_proc_2 + 705 pi_d_a8_a7_proc_2
      + pi_y1_a8 + pi_y2_a8_proc_2 >= 0
 c38: - pi_p_a1_a9 + pi_p_a9_a5 - pi_d_a0_a9_proc_1 + pi_d_a9_a0_proc_1
      - pi_d_a1_a9_proc_1 + pi_d_a9_a1_proc_1 - pi_d_a2_a9_proc_1
      + pi_d_a9_a2_proc_1 - pi_d_a3_a9_proc_1 + pi_d_a9_a3_proc_1
      - pi_d_a4_a9_proc_1 + pi_d_a9_a4_proc_1 - pi_d_a6_a9_proc_1
      + pi_d_a9_a6_proc_1 - pi_d_a7_a9_proc_1 + pi_d_a9_a7_proc_1
      - pi_d_a8_a9_proc_1 + pi_d_a9_a8_proc_1 >= 0
 c39: 1051 pi_p_a9_a9 + 1051 pi_p_a9_a5 + 1051 pi_d_a9_a0_proc_1
      + 1051 pi_d_a9_a1_proc_1 + 1051 pi_d_a9_a2_proc_1 + 1051 pi_d_a9_a3_proc_1
      + 1051 pi_d_a9_a4_proc_1 + 1051 pi_d_a9_a6_proc_1 + 1051 pi_d_a9_a7_proc_1
      + 1051 pi_d_a9_a8_proc_1 + pi_y1_a9 + pi_y2_a9_proc_1 >= 0

Bounds
       pi_y1_a0 Free
       pi_y1_a1 Free
       pi_y1_a2 Free
       pi_y1_a3 Free
       pi_y1_a4 Free
       pi_y1_a5 Free
       pi_y1_a6 Free
       pi_y1_a7 Free
       pi_y1_a8 Free
       pi_y1_a9 Free
End
