benchmark/results/graph__10-1000-0.10-03_15/graph__10-1000-0.10-03_15_QuintonOs_Benders_aux.txt
solution for: Quinton Bounded Benders_auxiliary_sub
objective: 0.000304692
status: OPTIMAL_SOLUTION(2)
pi_p_a2_a3=0.000
pi_p_a3_a4=0.000
pi_p_a6_a7=0.000
pi_p_a4_a6=0.000
pi_p_a7_a2=0.000
pi_y1_a2=-0.165
pi_y1_a3=-0.210
pi_y1_a4=-0.226
pi_y1_a6=-0.254
pi_y1_a7=-0.145
